n_res = 4;
rc = [ 14, 9, 8, 13 ];
n_tasks = 30;
d = [ 2, 6, 4, 1, 5, 9, 2, 6, 2, 1, 10, 4, 10, 5, 3, 1, 9, 7, 9, 8, 7, 4, 4, 8, 4, 3, 10, 6, 10, 7 ];
rr = [| 14, 14, 14, 14, 14, 14, 14, 14, 14, 14, 14, 14, 14, 14, 14, 14, 14, 14, 14, 14, 14, 14, 14, 14, 14, 14, 14, 14, 14, 14
      | 9, 9, 9, 9, 9, 9, 9, 9, 9, 9, 9, 9, 9, 9, 9, 9, 9, 9, 9, 9, 9, 9, 9, 9, 9, 9, 9, 9, 9, 9
      | 8, 8, 8, 8, 8, 8, 8, 8, 8, 8, 8, 8, 8, 8, 8, 8, 8, 8, 8, 8, 8, 8, 8, 8, 8, 8, 8, 8, 8, 8
      | 13, 13, 13, 13, 13, 13, 13, 13, 13, 13, 13, 13, 13, 13, 13, 13, 13, 13, 13, 13, 13, 13, 13, 13, 13, 13, 13, 13, 13, 13|];
suc = [ { 4, 20, 21 },
       { 7, 13 },
       { 5, 6, 8 },
       { 10, 17, 19 },
       { 15 },
       { 9, 10, 15 },
       { 11, 25 },
       { 12, 19, 21 },
       { 20, 24, 28 },
       { 14, 16, 26 },
       { 12, 18, 23 },
       { 16 },
       { 18 },
       { 22 },
       { 20, 22, 24 },
       { 28 },
       { 24, 28 },
       { 21, 22, 26 },
       { 29 },
       { 23 },
       { 27 },
       { 27, 29 },
       { 26, 30 },
       { 25 },
       { 27 },
       { 29 },
       { 30 },
       {  },
       {  },
       {  } ];
